;  time  = {}
;  terms = 25
;  score = -1
;  stdout= {}
(set-logic QF_FP)
(declare-const x0 (_ FloatingPoint 8 24))
(declare-const x1 (_ FloatingPoint 8 24))
(declare-const x2 (_ FloatingPoint 8 24))
(declare-const x3 (_ FloatingPoint 8 24))
(assert (not (fp.isNaN x0)))
(assert (not (fp.isInfinite x0)))
(assert (not (fp.isZero x0)))
(assert (not (fp.isNaN x1)))
(assert (not (fp.isInfinite x1)))
(assert (not (fp.isZero x1)))
(assert (not (fp.isNaN x2)))
(assert (not (fp.isInfinite x2)))
(assert (not (fp.isZero x2)))
(assert (not (fp.isNaN x3)))
(assert (not (fp.isInfinite x3)))
(assert (not (fp.isZero x3)))
(assert (fp.lt (fp.add RNE (fp.max (fp.max x1 x1) (fp.add RNE x3 x1)) (fp.sqrt RNE (fp.div RNE x0 x3))) (fp.rem (fp.max (fp.abs x0) (fp.neg x3)) (fp.mul RNE (fp.abs x3) (fp.rem x1 x2)))))(check-sat)